p cnf 200 1110
-101 -51 0
-101 -97 0
-101 -30 0
-101 10 0
-101 -46 0
-101 -9 0
-101 -59 0
-101 8 0
-101 17 0
-101 62 0
101 51 97 30 -10 46 9 59 -8 -17 -62 0
-102 2 0
-102 61 0
-102 -50 0
-102 -25 0
-102 23 0
-102 22 0
-102 -68 0
-102 -76 0
-102 62 0
-102 -31 0
102 -2 -61 50 25 -23 -22 68 76 -62 31 0
-103 98 0
-103 91 0
-103 95 0
-103 -30 0
-103 -64 0
-103 -78 0
-103 -94 0
-103 -51 0
-103 47 0
-103 -56 0
103 -98 -91 -95 30 64 78 94 51 -47 56 0
-104 -80 0
-104 -94 0
-104 -33 0
-104 25 0
-104 18 0
-104 31 0
-104 -63 0
-104 64 0
-104 5 0
-104 -60 0
104 80 94 33 -25 -18 -31 63 -64 -5 60 0
-105 100 0
-105 -13 0
-105 20 0
-105 5 0
-105 60 0
-105 -88 0
-105 8 0
-105 -90 0
-105 78 0
-105 -63 0
105 -100 13 -20 -5 -60 88 -8 90 -78 63 0
-106 -92 0
-106 -100 0
-106 -69 0
-106 -24 0
-106 -16 0
-106 93 0
-106 -39 0
-106 -48 0
-106 -90 0
-106 99 0
106 92 100 69 24 16 -93 39 48 90 -99 0
-107 -20 0
-107 -8 0
-107 -87 0
-107 -28 0
-107 -100 0
-107 -15 0
-107 10 0
-107 12 0
-107 60 0
-107 30 0
107 20 8 87 28 100 15 -10 -12 -60 -30 0
-108 -70 0
-108 32 0
-108 16 0
-108 -10 0
-108 -74 0
-108 37 0
-108 -20 0
-108 -5 0
-108 43 0
-108 11 0
108 70 -32 -16 10 74 -37 20 5 -43 -11 0
-109 -74 0
-109 77 0
-109 -62 0
-109 94 0
-109 -80 0
-109 -90 0
-109 -69 0
-109 59 0
-109 32 0
-109 100 0
109 74 -77 62 -94 80 90 69 -59 -32 -100 0
-110 29 0
-110 -87 0
-110 82 0
-110 38 0
-110 -50 0
-110 -39 0
-110 84 0
-110 -20 0
-110 21 0
-110 -17 0
110 -29 87 -82 -38 50 39 -84 20 -21 17 0
101 102 103 104 105 106 107 108 109 110 0
-111 80 0
-111 -38 0
-111 19 0
-111 -48 0
-111 47 0
-111 15 0
-111 24 0
-111 -82 0
-111 -92 0
-111 40 0
111 -80 38 -19 48 -47 -15 -24 82 92 -40 0
-112 -81 0
-112 91 0
-112 -17 0
-112 -26 0
-112 -46 0
-112 -14 0
-112 -43 0
-112 2 0
-112 -54 0
-112 -80 0
112 81 -91 17 26 46 14 43 -2 54 80 0
-113 -44 0
-113 92 0
-113 -31 0
-113 73 0
-113 7 0
-113 -59 0
-113 -99 0
-113 -3 0
-113 -83 0
-113 -82 0
113 44 -92 31 -73 -7 59 99 3 83 82 0
-114 -19 0
-114 28 0
-114 47 0
-114 82 0
-114 -99 0
-114 64 0
-114 11 0
-114 21 0
-114 -100 0
-114 56 0
114 19 -28 -47 -82 99 -64 -11 -21 100 -56 0
-115 -53 0
-115 39 0
-115 84 0
-115 -8 0
-115 -33 0
-115 52 0
-115 -65 0
-115 -49 0
-115 93 0
-115 92 0
115 53 -39 -84 8 33 -52 65 49 -93 -92 0
-116 62 0
-116 -30 0
-116 -65 0
-116 -13 0
-116 43 0
-116 -35 0
-116 27 0
-116 48 0
-116 21 0
-116 -53 0
116 -62 30 65 13 -43 35 -27 -48 -21 53 0
-117 -43 0
-117 91 0
-117 -67 0
-117 44 0
-117 -96 0
-117 -72 0
-117 -94 0
-117 64 0
-117 97 0
-117 28 0
117 43 -91 67 -44 96 72 94 -64 -97 -28 0
-118 -74 0
-118 -82 0
-118 100 0
-118 -93 0
-118 -42 0
-118 -72 0
-118 -14 0
-118 88 0
-118 79 0
-118 76 0
118 74 82 -100 93 42 72 14 -88 -79 -76 0
-119 -60 0
-119 11 0
-119 68 0
-119 -21 0
-119 3 0
-119 -79 0
-119 -63 0
-119 10 0
-119 65 0
-119 43 0
119 60 -11 -68 21 -3 79 63 -10 -65 -43 0
-120 -38 0
-120 -72 0
-120 -53 0
-120 31 0
-120 -51 0
-120 -55 0
-120 10 0
-120 -44 0
-120 -48 0
-120 -17 0
120 38 72 53 -31 51 55 -10 44 48 17 0
111 112 113 114 115 116 117 118 119 120 0
-121 -75 0
-121 -13 0
-121 8 0
-121 85 0
-121 18 0
-121 71 0
-121 -73 0
-121 64 0
-121 70 0
-121 -40 0
121 75 13 -8 -85 -18 -71 73 -64 -70 40 0
-122 -81 0
-122 -27 0
-122 61 0
-122 15 0
-122 34 0
-122 -45 0
-122 -30 0
-122 -83 0
-122 -42 0
-122 88 0
122 81 27 -61 -15 -34 45 30 83 42 -88 0
-123 -82 0
-123 68 0
-123 8 0
-123 -28 0
-123 -98 0
-123 94 0
-123 22 0
-123 -21 0
-123 -10 0
-123 -47 0
123 82 -68 -8 28 98 -94 -22 21 10 47 0
-124 -85 0
-124 21 0
-124 -92 0
-124 33 0
-124 -100 0
-124 24 0
-124 -69 0
-124 10 0
-124 61 0
-124 29 0
124 85 -21 92 -33 100 -24 69 -10 -61 -29 0
-125 -55 0
-125 89 0
-125 -61 0
-125 87 0
-125 -93 0
-125 -3 0
-125 35 0
-125 -77 0
-125 -10 0
-125 60 0
125 55 -89 61 -87 93 3 -35 77 10 -60 0
-126 -6 0
-126 -76 0
-126 45 0
-126 -13 0
-126 -62 0
-126 97 0
-126 49 0
-126 -52 0
-126 -74 0
-126 48 0
126 6 76 -45 13 62 -97 -49 52 74 -48 0
-127 14 0
-127 -47 0
-127 -80 0
-127 9 0
-127 38 0
-127 23 0
-127 -79 0
-127 -74 0
-127 17 0
-127 94 0
127 -14 47 80 -9 -38 -23 79 74 -17 -94 0
-128 -32 0
-128 -87 0
-128 -81 0
-128 25 0
-128 -73 0
-128 -84 0
-128 -6 0
-128 -18 0
-128 20 0
-128 -97 0
128 32 87 81 -25 73 84 6 18 -20 97 0
-129 2 0
-129 -75 0
-129 -52 0
-129 -97 0
-129 66 0
-129 -100 0
-129 -42 0
-129 -26 0
-129 -58 0
-129 36 0
129 -2 75 52 97 -66 100 42 26 58 -36 0
-130 -18 0
-130 -87 0
-130 8 0
-130 -93 0
-130 -23 0
-130 82 0
-130 -30 0
-130 27 0
-130 57 0
-130 77 0
130 18 87 -8 93 23 -82 30 -27 -57 -77 0
121 122 123 124 125 126 127 128 129 130 0
-131 95 0
-131 50 0
-131 43 0
-131 -99 0
-131 -60 0
-131 -28 0
-131 21 0
-131 44 0
-131 -8 0
-131 67 0
131 -95 -50 -43 99 60 28 -21 -44 8 -67 0
-132 -44 0
-132 -73 0
-132 -28 0
-132 39 0
-132 75 0
-132 87 0
-132 -11 0
-132 32 0
-132 -51 0
-132 6 0
132 44 73 28 -39 -75 -87 11 -32 51 -6 0
-133 -71 0
-133 -20 0
-133 11 0
-133 55 0
-133 -92 0
-133 -88 0
-133 -64 0
-133 -99 0
-133 -53 0
-133 3 0
133 71 20 -11 -55 92 88 64 99 53 -3 0
-134 -24 0
-134 61 0
-134 68 0
-134 100 0
-134 -6 0
-134 8 0
-134 -62 0
-134 -92 0
-134 63 0
-134 70 0
134 24 -61 -68 -100 6 -8 62 92 -63 -70 0
-135 -23 0
-135 -9 0
-135 91 0
-135 -82 0
-135 22 0
-135 84 0
-135 -70 0
-135 18 0
-135 27 0
-135 -52 0
135 23 9 -91 82 -22 -84 70 -18 -27 52 0
-136 91 0
-136 -45 0
-136 -46 0
-136 -67 0
-136 71 0
-136 94 0
-136 86 0
-136 19 0
-136 -90 0
-136 -22 0
136 -91 45 46 67 -71 -94 -86 -19 90 22 0
-137 91 0
-137 -43 0
-137 -4 0
-137 41 0
-137 -38 0
-137 -93 0
-137 9 0
-137 73 0
-137 89 0
-137 70 0
137 -91 43 4 -41 38 93 -9 -73 -89 -70 0
-138 45 0
-138 73 0
-138 72 0
-138 78 0
-138 -16 0
-138 51 0
-138 64 0
-138 -99 0
-138 -59 0
-138 46 0
138 -45 -73 -72 -78 16 -51 -64 99 59 -46 0
-139 -39 0
-139 -26 0
-139 73 0
-139 -20 0
-139 90 0
-139 -93 0
-139 98 0
-139 -13 0
-139 -41 0
-139 69 0
139 39 26 -73 20 -90 93 -98 13 41 -69 0
-140 -87 0
-140 33 0
-140 -58 0
-140 -84 0
-140 -59 0
-140 61 0
-140 2 0
-140 28 0
-140 -99 0
-140 -38 0
140 87 -33 58 84 59 -61 -2 -28 99 38 0
131 132 133 134 135 136 137 138 139 140 0
-141 -25 0
-141 61 0
-141 47 0
-141 51 0
-141 19 0
-141 81 0
-141 77 0
-141 -41 0
-141 29 0
-141 38 0
141 25 -61 -47 -51 -19 -81 -77 41 -29 -38 0
-142 -61 0
-142 -21 0
-142 69 0
-142 -32 0
-142 -4 0
-142 -87 0
-142 -91 0
-142 52 0
-142 73 0
-142 97 0
142 61 21 -69 32 4 87 91 -52 -73 -97 0
-143 -21 0
-143 -56 0
-143 97 0
-143 1 0
-143 -76 0
-143 100 0
-143 -54 0
-143 59 0
-143 9 0
-143 89 0
143 21 56 -97 -1 76 -100 54 -59 -9 -89 0
-144 16 0
-144 40 0
-144 72 0
-144 32 0
-144 -99 0
-144 -49 0
-144 36 0
-144 -50 0
-144 -42 0
-144 -29 0
144 -16 -40 -72 -32 99 49 -36 50 42 29 0
-145 -77 0
-145 -42 0
-145 -3 0
-145 -85 0
-145 52 0
-145 45 0
-145 84 0
-145 -7 0
-145 -34 0
-145 -17 0
145 77 42 3 85 -52 -45 -84 7 34 17 0
-146 -74 0
-146 66 0
-146 -41 0
-146 -14 0
-146 -81 0
-146 72 0
-146 -40 0
-146 8 0
-146 58 0
-146 96 0
146 74 -66 41 14 81 -72 40 -8 -58 -96 0
-147 -75 0
-147 82 0
-147 87 0
-147 -3 0
-147 24 0
-147 -48 0
-147 -10 0
-147 -98 0
-147 91 0
-147 -65 0
147 75 -82 -87 3 -24 48 10 98 -91 65 0
-148 -54 0
-148 -22 0
-148 -70 0
-148 -73 0
-148 39 0
-148 -74 0
-148 -81 0
-148 -40 0
-148 -82 0
-148 -52 0
148 54 22 70 73 -39 74 81 40 82 52 0
-149 31 0
-149 -80 0
-149 63 0
-149 52 0
-149 50 0
-149 99 0
-149 -68 0
-149 -26 0
-149 -82 0
-149 10 0
149 -31 80 -63 -52 -50 -99 68 26 82 -10 0
-150 12 0
-150 72 0
-150 -22 0
-150 -98 0
-150 -77 0
-150 -66 0
-150 25 0
-150 -19 0
-150 -48 0
-150 95 0
150 -12 -72 22 98 77 66 -25 19 48 -95 0
141 142 143 144 145 146 147 148 149 150 0
-151 93 0
-151 11 0
-151 -16 0
-151 25 0
-151 -90 0
-151 -77 0
-151 -27 0
-151 65 0
-151 -73 0
-151 -37 0
151 -93 -11 16 -25 90 77 27 -65 73 37 0
-152 75 0
-152 100 0
-152 -39 0
-152 -8 0
-152 18 0
-152 30 0
-152 12 0
-152 -83 0
-152 -97 0
-152 -26 0
152 -75 -100 39 8 -18 -30 -12 83 97 26 0
-153 68 0
-153 -15 0
-153 51 0
-153 67 0
-153 21 0
-153 -32 0
-153 34 0
-153 -37 0
-153 50 0
-153 -49 0
153 -68 15 -51 -67 -21 32 -34 37 -50 49 0
-154 -77 0
-154 -12 0
-154 -98 0
-154 -46 0
-154 -36 0
-154 -64 0
-154 17 0
-154 -14 0
-154 -15 0
-154 -51 0
154 77 12 98 46 36 64 -17 14 15 51 0
-155 41 0
-155 -28 0
-155 -99 0
-155 -88 0
-155 -46 0
-155 78 0
-155 -30 0
-155 -29 0
-155 -58 0
-155 52 0
155 -41 28 99 88 46 -78 30 29 58 -52 0
-156 -6 0
-156 -37 0
-156 93 0
-156 -49 0
-156 -75 0
-156 -79 0
-156 -78 0
-156 90 0
-156 -68 0
-156 -61 0
156 6 37 -93 49 75 79 78 -90 68 61 0
-157 63 0
-157 13 0
-157 -65 0
-157 -21 0
-157 61 0
-157 -23 0
-157 27 0
-157 -99 0
-157 33 0
-157 -85 0
157 -63 -13 65 21 -61 23 -27 99 -33 85 0
-158 -26 0
-158 -96 0
-158 75 0
-158 38 0
-158 -30 0
-158 40 0
-158 -66 0
-158 42 0
-158 14 0
-158 -36 0
158 26 96 -75 -38 30 -40 66 -42 -14 36 0
-159 26 0
-159 -96 0
-159 71 0
-159 61 0
-159 48 0
-159 -29 0
-159 -17 0
-159 90 0
-159 33 0
-159 -79 0
159 -26 96 -71 -61 -48 29 17 -90 -33 79 0
-160 -84 0
-160 -97 0
-160 94 0
-160 74 0
-160 -96 0
-160 -67 0
-160 25 0
-160 -53 0
-160 -62 0
-160 26 0
160 84 97 -94 -74 96 67 -25 53 62 -26 0
151 152 153 154 155 156 157 158 159 160 0
-161 28 0
-161 -32 0
-161 -24 0
-161 -41 0
-161 -52 0
-161 -46 0
-161 90 0
-161 53 0
-161 66 0
-161 95 0
161 -28 32 24 41 52 46 -90 -53 -66 -95 0
-162 -49 0
-162 -2 0
-162 82 0
-162 -69 0
-162 -26 0
-162 83 0
-162 -92 0
-162 60 0
-162 -32 0
-162 -42 0
162 49 2 -82 69 26 -83 92 -60 32 42 0
-163 80 0
-163 -52 0
-163 16 0
-163 -6 0
-163 40 0
-163 84 0
-163 -62 0
-163 97 0
-163 -54 0
-163 41 0
163 -80 52 -16 6 -40 -84 62 -97 54 -41 0
-164 -74 0
-164 -86 0
-164 37 0
-164 84 0
-164 79 0
-164 56 0
-164 88 0
-164 39 0
-164 -54 0
-164 -16 0
164 74 86 -37 -84 -79 -56 -88 -39 54 16 0
-165 -7 0
-165 -67 0
-165 8 0
-165 75 0
-165 -47 0
-165 55 0
-165 51 0
-165 73 0
-165 49 0
-165 -11 0
165 7 67 -8 -75 47 -55 -51 -73 -49 11 0
-166 89 0
-166 82 0
-166 100 0
-166 65 0
-166 -40 0
-166 -28 0
-166 98 0
-166 48 0
-166 79 0
-166 14 0
166 -89 -82 -100 -65 40 28 -98 -48 -79 -14 0
-167 -26 0
-167 75 0
-167 -79 0
-167 -2 0
-167 -8 0
-167 10 0
-167 81 0
-167 24 0
-167 -42 0
-167 -29 0
167 26 -75 79 2 8 -10 -81 -24 42 29 0
-168 90 0
-168 56 0
-168 -37 0
-168 -26 0
-168 -34 0
-168 -51 0
-168 -13 0
-168 -94 0
-168 72 0
-168 -43 0
168 -90 -56 37 26 34 51 13 94 -72 43 0
-169 -33 0
-169 -12 0
-169 73 0
-169 -54 0
-169 -4 0
-169 77 0
-169 -84 0
-169 86 0
-169 -48 0
-169 50 0
169 33 12 -73 54 4 -77 84 -86 48 -50 0
-170 42 0
-170 -67 0
-170 -38 0
-170 48 0
-170 -63 0
-170 -82 0
-170 79 0
-170 18 0
-170 75 0
-170 -19 0
170 -42 67 38 -48 63 82 -79 -18 -75 19 0
161 162 163 164 165 166 167 168 169 170 0
-171 88 0
-171 -100 0
-171 19 0
-171 75 0
-171 33 0
-171 36 0
-171 6 0
-171 -3 0
-171 -87 0
-171 -43 0
171 -88 100 -19 -75 -33 -36 -6 3 87 43 0
-172 -74 0
-172 19 0
-172 96 0
-172 -5 0
-172 22 0
-172 39 0
-172 3 0
-172 -37 0
-172 35 0
-172 53 0
172 74 -19 -96 5 -22 -39 -3 37 -35 -53 0
-173 -100 0
-173 64 0
-173 95 0
-173 9 0
-173 78 0
-173 -39 0
-173 37 0
-173 -16 0
-173 79 0
-173 -56 0
173 100 -64 -95 -9 -78 39 -37 16 -79 56 0
-174 62 0
-174 -17 0
-174 -59 0
-174 20 0
-174 -13 0
-174 34 0
-174 77 0
-174 -39 0
-174 55 0
-174 -79 0
174 -62 17 59 -20 13 -34 -77 39 -55 79 0
-175 40 0
-175 -47 0
-175 -75 0
-175 -54 0
-175 -55 0
-175 -72 0
-175 -82 0
-175 -93 0
-175 81 0
-175 31 0
175 -40 47 75 54 55 72 82 93 -81 -31 0
-176 92 0
-176 -10 0
-176 53 0
-176 93 0
-176 -77 0
-176 22 0
-176 -50 0
-176 -36 0
-176 45 0
-176 -57 0
176 -92 10 -53 -93 77 -22 50 36 -45 57 0
-177 67 0
-177 90 0
-177 -72 0
-177 -35 0
-177 -87 0
-177 27 0
-177 -73 0
-177 -29 0
-177 -51 0
-177 83 0
177 -67 -90 72 35 87 -27 73 29 51 -83 0
-178 -42 0
-178 -8 0
-178 87 0
-178 65 0
-178 -74 0
-178 -25 0
-178 80 0
-178 33 0
-178 -86 0
-178 35 0
178 42 8 -87 -65 74 25 -80 -33 86 -35 0
-179 12 0
-179 -87 0
-179 -84 0
-179 -27 0
-179 67 0
-179 -52 0
-179 6 0
-179 -11 0
-179 59 0
-179 -7 0
179 -12 87 84 27 -67 52 -6 11 -59 7 0
-180 4 0
-180 22 0
-180 -88 0
-180 -34 0
-180 17 0
-180 -89 0
-180 -65 0
-180 -16 0
-180 41 0
-180 -97 0
180 -4 -22 88 34 -17 89 65 16 -41 97 0
171 172 173 174 175 176 177 178 179 180 0
-181 57 0
-181 -73 0
-181 -11 0
-181 45 0
-181 32 0
-181 -61 0
-181 99 0
-181 94 0
-181 24 0
-181 53 0
181 -57 73 11 -45 -32 61 -99 -94 -24 -53 0
-182 -43 0
-182 -36 0
-182 -93 0
-182 -59 0
-182 -24 0
-182 -68 0
-182 78 0
-182 9 0
-182 -42 0
-182 -61 0
182 43 36 93 59 24 68 -78 -9 42 61 0
-183 -65 0
-183 -18 0
-183 36 0
-183 90 0
-183 -23 0
-183 -51 0
-183 67 0
-183 -89 0
-183 73 0
-183 -11 0
183 65 18 -36 -90 23 51 -67 89 -73 11 0
-184 -31 0
-184 -69 0
-184 -16 0
-184 88 0
-184 -72 0
-184 17 0
-184 54 0
-184 -89 0
-184 61 0
-184 -90 0
184 31 69 16 -88 72 -17 -54 89 -61 90 0
-185 66 0
-185 34 0
-185 -96 0
-185 -28 0
-185 -47 0
-185 29 0
-185 19 0
-185 89 0
-185 69 0
-185 88 0
185 -66 -34 96 28 47 -29 -19 -89 -69 -88 0
-186 20 0
-186 100 0
-186 -6 0
-186 -27 0
-186 -22 0
-186 -7 0
-186 -26 0
-186 58 0
-186 1 0
-186 -13 0
186 -20 -100 6 27 22 7 26 -58 -1 13 0
-187 -3 0
-187 -49 0
-187 -14 0
-187 68 0
-187 -73 0
-187 -90 0
-187 52 0
-187 28 0
-187 -6 0
-187 -79 0
187 3 49 14 -68 73 90 -52 -28 6 79 0
-188 -63 0
-188 -49 0
-188 -86 0
-188 -4 0
-188 -32 0
-188 17 0
-188 15 0
-188 100 0
-188 -2 0
-188 -51 0
188 63 49 86 4 32 -17 -15 -100 2 51 0
-189 30 0
-189 73 0
-189 -82 0
-189 100 0
-189 -96 0
-189 70 0
-189 87 0
-189 13 0
-189 -22 0
-189 -68 0
189 -30 -73 82 -100 96 -70 -87 -13 22 68 0
-190 19 0
-190 -82 0
-190 -29 0
-190 62 0
-190 83 0
-190 -80 0
-190 -14 0
-190 -50 0
-190 43 0
-190 -15 0
190 -19 82 29 -62 -83 80 14 50 -43 15 0
181 182 183 184 185 186 187 188 189 190 0
-191 -27 0
-191 3 0
-191 11 0
-191 64 0
-191 16 0
-191 -43 0
-191 58 0
-191 77 0
-191 -21 0
-191 -61 0
191 27 -3 -11 -64 -16 43 -58 -77 21 61 0
-192 -90 0
-192 100 0
-192 -31 0
-192 88 0
-192 -65 0
-192 73 0
-192 20 0
-192 -1 0
-192 -21 0
-192 68 0
192 90 -100 31 -88 65 -73 -20 1 21 -68 0
-193 65 0
-193 -84 0
-193 100 0
-193 -95 0
-193 -2 0
-193 69 0
-193 89 0
-193 78 0
-193 -25 0
-193 -68 0
193 -65 84 -100 95 2 -69 -89 -78 25 68 0
-194 65 0
-194 26 0
-194 -66 0
-194 23 0
-194 -91 0
-194 -14 0
-194 -31 0
-194 -80 0
-194 56 0
-194 21 0
194 -65 -26 66 -23 91 14 31 80 -56 -21 0
-195 33 0
-195 -72 0
-195 47 0
-195 29 0
-195 89 0
-195 13 0
-195 70 0
-195 -68 0
-195 -56 0
-195 -16 0
195 -33 72 -47 -29 -89 -13 -70 68 56 16 0
-196 78 0
-196 10 0
-196 -71 0
-196 -2 0
-196 50 0
-196 25 0
-196 -39 0
-196 63 0
-196 -36 0
-196 75 0
196 -78 -10 71 2 -50 -25 39 -63 36 -75 0
-197 33 0
-197 -82 0
-197 -18 0
-197 -99 0
-197 -34 0
-197 -6 0
-197 21 0
-197 8 0
-197 -68 0
-197 27 0
197 -33 82 18 99 34 6 -21 -8 68 -27 0
-198 -57 0
-198 -76 0
-198 7 0
-198 61 0
-198 -71 0
-198 38 0
-198 -60 0
-198 -79 0
-198 -86 0
-198 -100 0
198 57 76 -7 -61 71 -38 60 79 86 100 0
-199 29 0
-199 85 0
-199 -34 0
-199 -97 0
-199 39 0
-199 3 0
-199 -31 0
-199 -78 0
-199 -13 0
-199 35 0
199 -29 -85 34 97 -39 -3 31 78 13 -35 0
-200 94 0
-200 89 0
-200 -79 0
-200 86 0
-200 -37 0
-200 61 0
-200 64 0
-200 -74 0
-200 -59 0
-200 51 0
200 -94 -89 79 -86 37 -61 -64 74 59 -51 0
191 192 193 194 195 196 197 198 199 200 0
